15	100	3
10	60	3
10	160	3
15	70	9
30	120	3
20	80	6
40	160	6
10	40	9
15	70	3
20	100	3
20	110	6
5	20	3
15	70	9
15	60	9
30	130	6
20	90	3
40	170	9
15	70	9
40	150	9
25	100	6
30	110	3
15	50	3
10	70	9
25	100	9
30	90	9